Please solve the following SAT Problem encoded in DIMACS format, provide line of thoughts, write your final answer as a single solution at the end of response with header 'answer: ' : 
p cnf 10 40
1 2 5 0
2 6 1 0
10 6 -3 0
4 8 -3 0
10 8 9 0
4 7 -8 0
10 8 6 0
6 1 4 0
7 5 1 0
2 1 10 0
6 10 3 0
7 2 10 0
3 2 7 0
9 5 7 0
4 2 9 0
8 4 -3 0
1 7 4 0
10 -5 4 0
7 3 9 0
-4 8 -10 0
9 2 3 0
2 -7 10 0
-1 4 6 0
8 2 9 0
4 5 1 0
-5 10 2 0
5 2 4 0
4 -10 5 0
10 6 -1 0
9 1 7 0
2 9 6 0
-3 5 2 0
-5 9 7 0
9 8 4 0
7 -2 6 0
2 4 3 0
1 5 7 0
-2 5 4 0
5 -3 1 0
10 1 6 0

